
Gurobi 8.1.0 (mac64, Python) logging started Sat Apr  3 14:49:29 2021

Academic license - for non-commercial use only

Gurobi 8.1.0 (mac64, Python) logging started Sat Apr  3 15:12:31 2021

Academic license - for non-commercial use only

Gurobi 8.1.0 (mac64, Python) logging started Sat Apr  3 15:21:58 2021

Academic license - for non-commercial use only

Gurobi 8.1.0 (mac64, Python) logging started Sat Apr  3 15:23:26 2021

Academic license - for non-commercial use only

Gurobi 8.1.0 (mac64, Python) logging started Sat Apr  3 15:24:51 2021

Academic license - for non-commercial use only

Gurobi 8.1.0 (mac64, Python) logging started Sat Apr  3 15:25:05 2021

Academic license - for non-commercial use only

Gurobi 8.1.0 (mac64, Python) logging started Sat Apr  3 15:26:23 2021

Academic license - for non-commercial use only

Gurobi 8.1.0 (mac64, Python) logging started Sat Apr  3 15:27:17 2021

Academic license - for non-commercial use only

Gurobi 8.1.0 (mac64, Python) logging started Sat Apr  3 15:28:21 2021

Academic license - for non-commercial use only

Gurobi 8.1.0 (mac64, Python) logging started Sat Apr  3 15:28:36 2021

Academic license - for non-commercial use only

Gurobi 8.1.0 (mac64, Python) logging started Sat Apr  3 15:29:24 2021

Academic license - for non-commercial use only

Gurobi 8.1.0 (mac64, Python) logging started Sat Apr  3 15:30:19 2021

Academic license - for non-commercial use only

Gurobi 8.1.0 (mac64, Python) logging started Sat Apr  3 15:31:13 2021

Academic license - for non-commercial use only

Gurobi 8.1.0 (mac64, Python) logging started Sat Apr  3 15:32:07 2021

Academic license - for non-commercial use only

Gurobi 8.1.0 (mac64, Python) logging started Sat Apr  3 15:33:00 2021

Academic license - for non-commercial use only

Gurobi 8.1.0 (mac64, Python) logging started Sat Apr  3 15:33:14 2021

Academic license - for non-commercial use only

Gurobi 8.1.0 (mac64, Python) logging started Sat Apr  3 15:37:19 2021

Academic license - for non-commercial use only

Gurobi 8.1.0 (mac64, Python) logging started Sat Apr  3 15:40:56 2021

Academic license - for non-commercial use only

Gurobi 8.1.0 (mac64, Python) logging started Sat Apr  3 15:44:36 2021

Academic license - for non-commercial use only
